NAME : a280.tsp
COMMENT : Optimal tour for a280.tsp
TYPE : TOUR
DIMENSION : 280
Total Length: 2842.2667066910826
TOUR_SECTION
1
5
6
7
9
8
10
11
12
15
13
14
24
23
25
22
26
27
28
29
32
33
36
37
50
51
52
49
48
53
54
47
46
45
55
56
57
44
59
58
68
69
70
71
72
73
74
76
75
77
78
95
96
97
94
98
99
93
80
79
81
82
89
90
91
92
103
104
108
109
110
111
112
88
83
84
87
86
85
66
67
65
64
63
62
116
113
114
115
117
118
61
60
43
42
41
40
39
38
35
34
31
30
125
124
123
126
127
128
129
154
155
153
156
122
121
120
119
157
158
159
160
175
174
107
105
106
173
172
171
170
169
102
101
100
168
167
166
165
164
163
162
161
182
183
184
185
186
187
188
189
190
191
192
193
194
195
197
198
196
201
202
203
204
205
206
208
253
254
257
258
259
260
261
262
263
264
265
266
140
141
142
143
144
200
199
145
146
147
179
180
181
176
177
151
152
178
150
149
148
139
138
137
267
268
136
135
269
270
134
133
132
131
130
21
20
19
18
17
16
271
272
273
274
275
276
277
4
278
279
3
280
2
242
243
248
249
256
255
252
209
210
207
212
213
211
214
215
218
216
217
220
219
221
222
223
224
225
226
227
228
229
230
251
250
247
244
241
240
245
246
239
238
231
232
237
236
235
234
233
-1
EOF
